40
75
52	3
51	4
50	1
48	6
47	1
46	3
44	3
43	3
42	2
41	2
40	1
38	2
37	5
36	1
35	2
34	3
33	1
32	3
31	2
30	1
29	4
28	2
27	3
26	3
25	1
24	5
23	2
22	3
21	2
20	2
18	4
17	2
14	3
13	4
12	2
11	4
10	1
9	2
8	1
7	1
